NAME          BLANK   
ROWS
 N  OBJROW
 L  R0000000
COLUMNS
    C0000000  OBJROW     -406.         R0000000  384.        
    C0000001  OBJROW     -598.         R0000000  782.        
    C0000002  OBJROW     -829.         R0000000  133.        
    C0000003  OBJROW     -79.          R0000000  615.        
    C0000004  OBJROW     -520.         R0000000  544.        
    C0000005  OBJROW     -189.         R0000000  705.        
    C0000006  OBJROW     -870.         R0000000  640.        
    C0000007  OBJROW     -771.         R0000000  290.        
    C0000008  OBJROW     -595.         R0000000  722.        
    C0000009  OBJROW     -133.         R0000000  584.        
    C0000010  OBJROW     -619.         R0000000  473.        
    C0000011  OBJROW     -377.         R0000000  464.        
    C0000012  OBJROW     -576.         R0000000  272.        
    C0000013  OBJROW     -585.         R0000000  728.        
    C0000014  OBJROW     -392.         R0000000  939.        
    C0000015  OBJROW     -762.         R0000000  241.        
RHS
    RHS       R0000000  15551.      
BOUNDS
 BV BOUND     C0000000  1.          
 BV BOUND     C0000001  1.          
 BV BOUND     C0000002  1.          
 BV BOUND     C0000003  1.          
 BV BOUND     C0000004  1.          
 BV BOUND     C0000005  1.          
 BV BOUND     C0000006  1.          
 BV BOUND     C0000007  1.          
 BV BOUND     C0000008  1.          
 BV BOUND     C0000009  1.          
 BV BOUND     C0000010  1.          
 BV BOUND     C0000011  1.          
 BV BOUND     C0000012  1.          
 BV BOUND     C0000013  1.          
 BV BOUND     C0000014  1.          
 BV BOUND     C0000015  1.          
ENDATA
